Minimize
  - 20 y_0 - 28 y_1 - 47 y_2 - 44 y_3 - 41 y_4 - 49 y_5 - 29 y_6 - 36 y_8
   - 17 y_9 + 63 x_0_2 + 23 x_0_6 + 33 x_0_8 + 43 x_1_2 + 46 x_1_4
   + 56 x_1_7 + 43 x_2_3 + 51 x_2_8 + 51 x_3_5 + 18 x_3_8 + 85 x_3_9
   + 37 x_4_5 + 50 x_6_9 + 33 x_7_9 + 311 Constant
Subject To
 c_0: y_0 = 1
 c_1_0: y_0 >= 1
 c_1_1: y_1 >= 1
 c_1_2: y_2 + y_5 >= 1
 c_1_3: y_3 >= 1
 c_1_4: y_4 >= 1
 c_1_5: y_2 + y_5 >= 1
 c_1_6: y_6 >= 1
 c_1_7: y_7 >= 1
 c_1_8: y_8 >= 1
 c_1_9: y_9 >= 1
 c_2_0: - 2 y_0 + x_0_2 + x_0_6 + x_0_8 = 0
 c_2_1: - 2 y_1 + x_1_2 + x_1_4 + x_1_7 = 0
 c_2_2: - 2 y_2 + x_0_2 + x_1_2 + x_2_3 + x_2_8 = 0
 c_2_3: - 2 y_3 + x_2_3 + x_3_5 + x_3_8 + x_3_9 = 0
 c_2_4: - 2 y_4 + x_1_4 + x_4_5 = 0
 c_2_5: - 2 y_5 + x_3_5 + x_4_5 = 0
 c_2_6: - 2 y_6 + x_0_6 + x_6_9 = 0
 c_2_7: - 2 y_7 + x_1_7 + x_7_9 = 0
 c_2_8: - 2 y_8 + x_0_8 + x_2_8 + x_3_8 = 0
 c_2_9: - 2 y_9 + x_3_9 + x_6_9 + x_7_9 = 0
Bounds
 Constant = 1
Binaries
 y_0 y_1 y_2 y_3 y_4 y_5 y_6 y_7 y_8 y_9 x_0_2 x_0_6 x_0_8 x_1_2 x_1_4
 x_1_7 x_2_3 x_2_8 x_3_5 x_3_8 x_3_9 x_4_5 x_6_9 x_7_9
End
